Route #1: 34 79 77 167 181 176 98 137 183 116 60 174 51 202 47 150 11 207 192
Route #2: 48 50 40 39 74 126 160 196 57 82 23 95 75 30 89 44 193 189 131 142 140 78 88 134 190
Route #3: 125 136 168 41 12 130 6 42 158 105 205 178 157 213 3 148 92 63 49 145 169 182 14
Route #4: 65 201 187 188 18 64 69 133 46 54 118 28 83 94 121 81
Route #5: 56 37 163 161 31 197 4 200 61 143 19 111 177 109 43 80 198 132 102
Route #6: 156 22 127 199 10 135 147 91 87 55 120 172 179 195 20 16 99 35 164 100
Route #7: 170 7 117 71 24 106 159 124 180 93 211 84 8 173 138 97
Route #8: 5 73 204 36 2 112 58 129 166 68 155 113 203 212 175 141 144
Route #9: 76 29 101 86 62 70 90 9 171 26 53 128 13 122 33 108 32
Route #10: 59 104 208 45 146 151 185 96 114 123 115 17 15 67 38 165 52 184 110 206 21 162 191 154
Route #11: 194 107 66 72 139 153 210 27 214 149 103 186 119 209 25 85 152
